; hot solver driver for stats/tmp-hot
; replay via: cd stats/tmp-hot && z3 driver.smt2
(set-logic ALL)
(include "base.smt2")
(include "puzzle-0400.smt2")
(include "puzzle-0401.smt2")
(include "puzzle-0402.smt2")
(include "puzzle-0403.smt2")
(include "puzzle-0404.smt2")
(include "puzzle-0405.smt2")
(include "puzzle-0406.smt2")
(include "puzzle-0407.smt2")
(include "puzzle-0408.smt2")
(include "puzzle-0409.smt2")
